p cnf 21 44
a 19 5 0
e 1 2 3 4 6 7 8 9 10 11 12 13 14 15 16 17 18 20 21 0
-3 1 0
-3 2 0
-1 -2 3 0
6 4 0
6 -5 0
-4 5 -6 0
-7 3 0
-7 -6 0
-3 6 7 0
9 -3 0
9 3 0
-10 -8 0
-10 -9 0
8 9 10 0
-11 6 0
-11 -5 0
-6 5 11 0
-12 3 0
-12 -11 0
-3 11 12 0
-12 -13 -14 0
12 13 -14 0
-12 13 14 0
12 -13 14 0
15 -10 0
15 -14 0
10 14 -15 0
18 16 0
18 17 0
-16 -17 -18 0
19 -16 0
19 -18 0
16 18 -19 0
-20 -15 0
-20 -19 0
15 19 20 0
-21 -7 0
-21 -20 0
7 20 21 0
-1 -6 -16 -17 0
4 14 12 -1 -19 11 0
-15 -9 -19 16 12 2 0
10 -12 2 3 -19 0
21 0
